; benchmark generated from python API
(set-info :status unknown)
(declare-fun x_days () Int)
(declare-fun y_days () Int)
(assert
 (>= x_days (- 36525)))
(assert
 (<= x_days 36523))
(assert
 (>= y_days (- 36525)))
(assert
 (<= y_days 36523))
(assert
 (= x_days 7275))
(assert
 (= y_days 6910))
(assert
 (let ((?x2045 (+ x_days 730179)))
 (let ((?x3259 (mod ?x2045 146097)))
 (let ((?x3454 (div ?x3259 36524)))
 (let ((?x3503 (ite (<= 4 ?x3454) 3 ?x3454)))
 (let ((?x869 (- ?x3259 (* ?x3503 36524))))
 (let ((?x990 (mod ?x869 1461)))
 (let ((?x968 (div ?x990 365)))
 (let ((?x457 (ite (<= 4 ?x968) 3 ?x968)))
 (let ((?x691 (+ (+ (* (div ?x2045 146097) 400) (* ?x3503 100)) (* (div ?x869 1461) 4))))
 (let ((?x750 (+ (+ ?x691 ?x457) 1)))
 (let (($x570 (or (and (= (mod ?x750 4) 0) (and (distinct (mod ?x750 100) 0) true)) (= (mod ?x750 400) 0))))
 (let ((?x1176 (- ?x990 (* ?x457 365))))
 (let ((?x844 (ite $x570 31 31)))
 (let (($x639 (>= ?x1176 ?x844)))
 (let ((?x873 (ite $x639 (+ (- ?x1176 ?x844) 1) (+ (- ?x1176 (ite $x570 0 0)) 1))))
 (let ((?x563 (ite $x570 60 59)))
 (let (($x966 (>= ?x1176 ?x563)))
 (let ((?x2891 (ite $x570 91 90)))
 (let (($x3452 (>= ?x1176 ?x2891)))
 (let ((?x895 (ite $x3452 (+ (- ?x1176 ?x2891) 1) (ite $x966 (+ (- ?x1176 ?x563) 1) ?x873))))
 (let ((?x1265 (ite $x570 121 120)))
 (let (($x940 (>= ?x1176 ?x1265)))
 (let ((?x947 (ite $x570 152 151)))
 (let (($x804 (>= ?x1176 ?x947)))
 (let ((?x532 (ite $x804 (+ (- ?x1176 ?x947) 1) (ite $x940 (+ (- ?x1176 ?x1265) 1) ?x895))))
 (let ((?x1139 (ite $x570 182 181)))
 (let (($x876 (>= ?x1176 ?x1139)))
 (let ((?x1835 (ite $x570 213 212)))
 (let (($x581 (>= ?x1176 ?x1835)))
 (let ((?x999 (ite $x581 (+ (- ?x1176 ?x1835) 1) (ite $x876 (+ (- ?x1176 ?x1139) 1) ?x532))))
 (let ((?x678 (ite $x570 244 243)))
 (let (($x1142 (>= ?x1176 ?x678)))
 (let ((?x1008 (ite $x570 274 273)))
 (let (($x3258 (>= ?x1176 ?x1008)))
 (let ((?x436 (ite $x3258 (+ (- ?x1176 ?x1008) 1) (ite $x1142 (+ (- ?x1176 ?x678) 1) ?x999))))
 (let ((?x660 (ite $x570 305 304)))
 (let (($x2496 (>= ?x1176 ?x660)))
 (let ((?x1019 (ite $x570 335 334)))
 (let (($x888 (>= ?x1176 ?x1019)))
 (let ((?x467 (ite $x888 (+ (- ?x1176 ?x1019) 1) (ite $x2496 (+ (- ?x1176 ?x660) 1) ?x436))))
 (let ((?x530 (+ (* 0 12) 1)))
 (let ((?x471 (ite $x940 5 (ite $x3452 4 (ite $x966 3 (ite $x639 2 1))))))
 (let ((?x1131 (ite $x1142 9 (ite $x581 8 (ite $x876 7 (ite $x804 6 ?x471))))))
 (let ((?x737 (- (+ (ite $x888 12 (ite $x2496 11 (ite $x3258 10 ?x1131))) ?x530) 1)))
 (let ((?x997 (+ (mod ?x737 12) 1)))
 (let ((?x630 (ite (or (= ?x997 4) (= ?x997 6) (= ?x997 9) (= ?x997 11)) 30 31)))
 (let (($x426 (and (= (mod (+ ?x750 (+ 0 (div ?x737 12))) 4) 0) (and (distinct (mod (+ ?x750 (+ 0 (div ?x737 12))) 100) 0) true))))
 (let (($x469 (or $x426 (= (mod (+ ?x750 (+ 0 (div ?x737 12))) 400) 0))))
 (let ((?x632 (ite (= ?x997 2) (ite $x469 29 28) ?x630)))
 (let ((?x987 (ite (> 1 ?x467) 1 (ite (> ?x467 ?x632) ?x632 ?x467))))
 (let ((?x401 (ite (> 1 ?x987) 1 (ite (> ?x987 ?x632) ?x632 ?x987))))
 (let ((?x1048 (ite (= 2 ?x997) (ite $x469 31 31) (ite (= 1 ?x997) (ite $x469 0 0) 0))))
 (let ((?x852 (ite (= 4 ?x997) (ite $x469 91 90) (ite (= 3 ?x997) (ite $x469 60 59) ?x1048))))
 (let ((?x900 (ite (= 6 ?x997) (ite $x469 152 151) (ite (= 5 ?x997) (ite $x469 121 120) ?x852))))
 (let ((?x731 (ite (= 8 ?x997) (ite $x469 213 212) (ite (= 7 ?x997) (ite $x469 182 181) ?x900))))
 (let ((?x2785 (ite (= 10 ?x997) (ite $x469 274 273) (ite (= 9 ?x997) (ite $x469 244 243) ?x731))))
 (let ((?x820 (ite (= 12 ?x997) (ite $x469 335 334) (ite (= 11 ?x997) (ite $x469 305 304) ?x2785))))
 (let ((?x586 (+ (* 365 (- (+ ?x750 (+ 0 (div ?x737 12))) 1)) (div (- (+ ?x750 (+ 0 (div ?x737 12))) 1) 4))))
 (let ((?x1042 (+ (- ?x586 (div (- (+ ?x750 (+ 0 (div ?x737 12))) 1) 100)) (div (- (+ ?x750 (+ 0 (div ?x737 12))) 1) 400))))
 (let ((?x717 (+ (+ (- (+ (+ ?x1042 ?x820) (- ?x401 1)) 730179) 0) 730179)))
 (let ((?x1050 (mod ?x717 146097)))
 (let ((?x998 (div ?x1050 36524)))
 (let ((?x970 (ite (<= 4 ?x998) 3 ?x998)))
 (let ((?x2893 (- ?x1050 (* ?x970 36524))))
 (let ((?x577 (mod ?x2893 1461)))
 (let ((?x2702 (div ?x577 365)))
 (let ((?x1144 (ite (<= 4 ?x2702) 3 ?x2702)))
 (let ((?x1128 (+ (+ (* (div ?x717 146097) 400) (* ?x970 100)) (* (div ?x2893 1461) 4))))
 (let ((?x814 (+ (+ ?x1128 ?x1144) 1)))
 (let (($x403 (or (and (= (mod ?x814 4) 0) (and (distinct (mod ?x814 100) 0) true)) (= (mod ?x814 400) 0))))
 (let ((?x718 (- ?x577 (* ?x1144 365))))
 (let ((?x1135 (ite $x403 31 31)))
 (let (($x835 (>= ?x718 ?x1135)))
 (let ((?x800 (ite $x835 (+ (- ?x718 ?x1135) 1) (+ (- ?x718 (ite $x403 0 0)) 1))))
 (let ((?x1145 (ite $x403 60 59)))
 (let (($x497 (>= ?x718 ?x1145)))
 (let ((?x2064 (ite $x403 91 90)))
 (let (($x3701 (>= ?x718 ?x2064)))
 (let ((?x3022 (ite $x3701 (+ (- ?x718 ?x2064) 1) (ite $x497 (+ (- ?x718 ?x1145) 1) ?x800))))
 (let ((?x3197 (ite $x403 121 120)))
 (let (($x734 (>= ?x718 ?x3197)))
 (let ((?x620 (ite $x403 152 151)))
 (let (($x739 (>= ?x718 ?x620)))
 (let ((?x843 (ite $x739 (+ (- ?x718 ?x620) 1) (ite $x734 (+ (- ?x718 ?x3197) 1) ?x3022))))
 (let ((?x1016 (ite $x403 182 181)))
 (let (($x864 (>= ?x718 ?x1016)))
 (let ((?x699 (ite $x403 213 212)))
 (let (($x654 (>= ?x718 ?x699)))
 (let ((?x1725 (ite $x654 (+ (- ?x718 ?x699) 1) (ite $x864 (+ (- ?x718 ?x1016) 1) ?x843))))
 (let ((?x438 (ite $x403 244 243)))
 (let (($x2916 (>= ?x718 ?x438)))
 (let ((?x482 (ite $x403 274 273)))
 (let (($x1728 (>= ?x718 ?x482)))
 (let ((?x1136 (ite $x1728 (+ (- ?x718 ?x482) 1) (ite $x2916 (+ (- ?x718 ?x438) 1) ?x1725))))
 (let ((?x1710 (ite $x403 305 304)))
 (let (($x466 (>= ?x718 ?x1710)))
 (let ((?x3529 (ite $x403 335 334)))
 (let (($x3040 (>= ?x718 ?x3529)))
 (let ((?x822 (ite $x3040 (+ (- ?x718 ?x3529) 1) (ite $x466 (+ (- ?x718 ?x1710) 1) ?x1136))))
 (let (($x533 (= 0 0)))
 (let (($x1034 (= (mod (ite $x533 (+ ?x750 (+ 0 (div ?x737 12))) ?x814) 400) 0)))
 (let (($x669 (and (distinct (mod (ite $x533 (+ ?x750 (+ 0 (div ?x737 12))) ?x814) 100) 0) true)))
 (let (($x848 (= (mod (ite $x533 (+ ?x750 (+ 0 (div ?x737 12))) ?x814) 4) 0)))
 (let (($x1063 (or (and $x848 $x669) $x1034)))
 (let ((?x792 (ite $x734 5 (ite $x3701 4 (ite $x497 3 (ite $x835 2 1))))))
 (let ((?x3231 (ite $x2916 9 (ite $x654 8 (ite $x864 7 (ite $x739 6 ?x792))))))
 (let ((?x607 (ite $x533 ?x997 (ite $x3040 12 (ite $x466 11 (ite $x1728 10 ?x3231))))))
 (let ((?x856 (ite (= 2 ?x607) (ite $x1063 31 31) (ite (= 1 ?x607) (ite $x1063 0 0) 0))))
 (let ((?x3150 (ite (= 4 ?x607) (ite $x1063 91 90) (ite (= 3 ?x607) (ite $x1063 60 59) ?x856))))
 (let ((?x1028 (ite (= 6 ?x607) (ite $x1063 152 151) (ite (= 5 ?x607) (ite $x1063 121 120) ?x3150))))
 (let ((?x1717 (ite (= 8 ?x607) (ite $x1063 213 212) (ite (= 7 ?x607) (ite $x1063 182 181) ?x1028))))
 (let ((?x704 (ite (= 10 ?x607) (ite $x1063 274 273) (ite (= 9 ?x607) (ite $x1063 244 243) ?x1717))))
 (let ((?x979 (ite (= 12 ?x607) (ite $x1063 335 334) (ite (= 11 ?x607) (ite $x1063 305 304) ?x704))))
 (let ((?x932 (+ ?x750 (+ 0 (div ?x737 12)))))
 (let ((?x867 (ite $x533 ?x932 ?x814)))
 (let ((?x755 (- ?x867 1)))
 (let ((?x488 (+ (- (+ (* 365 ?x755) (div ?x755 4)) (div ?x755 100)) (div ?x755 400))))
 (= (- (+ (+ ?x488 ?x979) (- (ite $x533 ?x401 ?x822) 1)) 730179) 7304)))))))))))))))))))))))))))))))))))))))))))))))))))))))))))))))))))))))))))))))))))))))))))))))))))))))))))))))))))))))
(assert
 (let ((?x517 (+ y_days 730179)))
(let ((?x2743 (mod ?x517 146097)))
(let ((?x2951 (div ?x2743 36524)))
(let ((?x539 (ite (<= 4 ?x2951) 3 ?x2951)))
(let ((?x3029 (- ?x2743 (* ?x539 36524))))
(let ((?x898 (mod ?x3029 1461)))
(let ((?x441 (div ?x898 365)))
(let ((?x516 (ite (<= 4 ?x441) 3 ?x441)))
(let ((?x1544 (+ (+ (* (div ?x517 146097) 400) (* ?x539 100)) (* (div ?x3029 1461) 4))))
(let ((?x1722 (+ (+ ?x1544 ?x516) 1)))
(let (($x957 (or (and (= (mod ?x1722 4) 0) (and (distinct (mod ?x1722 100) 0) true)) (= (mod ?x1722 400) 0))))
(let ((?x418 (- ?x898 (* ?x516 365))))
(let ((?x1997 (ite $x957 31 31)))
(let (($x2703 (>= ?x418 ?x1997)))
(let ((?x2099 (ite $x2703 (+ (- ?x418 ?x1997) 1) (+ (- ?x418 (ite $x957 0 0)) 1))))
(let ((?x1565 (ite $x957 60 59)))
(let (($x697 (>= ?x418 ?x1565)))
(let ((?x860 (ite $x957 91 90)))
(let (($x455 (>= ?x418 ?x860)))
(let ((?x1771 (ite $x455 (+ (- ?x418 ?x860) 1) (ite $x697 (+ (- ?x418 ?x1565) 1) ?x2099))))
(let ((?x892 (ite $x957 121 120)))
(let (($x2488 (>= ?x418 ?x892)))
(let ((?x657 (ite $x957 152 151)))
(let (($x665 (>= ?x418 ?x657)))
(let ((?x1141 (ite $x665 (+ (- ?x418 ?x657) 1) (ite $x2488 (+ (- ?x418 ?x892) 1) ?x1771))))
(let ((?x706 (ite $x957 182 181)))
(let (($x723 (>= ?x418 ?x706)))
(let ((?x725 (ite $x957 213 212)))
(let (($x587 (>= ?x418 ?x725)))
(let ((?x3198 (ite $x587 (+ (- ?x418 ?x725) 1) (ite $x723 (+ (- ?x418 ?x706) 1) ?x1141))))
(let ((?x3134 (ite $x957 244 243)))
(let (($x673 (>= ?x418 ?x3134)))
(let ((?x3419 (ite $x957 274 273)))
(let (($x1528 (>= ?x418 ?x3419)))
(let ((?x3126 (ite $x1528 (+ (- ?x418 ?x3419) 1) (ite $x673 (+ (- ?x418 ?x3134) 1) ?x3198))))
(let ((?x494 (ite $x957 305 304)))
(let (($x1118 (>= ?x418 ?x494)))
(let ((?x3633 (ite $x957 335 334)))
(let (($x825 (>= ?x418 ?x3633)))
(let ((?x3023 (ite $x825 (+ (- ?x418 ?x3633) 1) (ite $x1118 (+ (- ?x418 ?x494) 1) ?x3126))))
(let ((?x530 (+ (* 0 12) 1)))
(let ((?x3450 (ite $x2488 5 (ite $x455 4 (ite $x697 3 (ite $x2703 2 1))))))
(let ((?x747 (ite $x673 9 (ite $x587 8 (ite $x723 7 (ite $x665 6 ?x3450))))))
(let ((?x3087 (- (+ (ite $x825 12 (ite $x1118 11 (ite $x1528 10 ?x747))) ?x530) 1)))
(let ((?x412 (+ (mod ?x3087 12) 1)))
(let ((?x2664 (ite (or (= ?x412 4) (= ?x412 6) (= ?x412 9) (= ?x412 11)) 30 31)))
(let (($x3151 (and (= (mod (+ ?x1722 (+ 0 (div ?x3087 12))) 4) 0) (and (distinct (mod (+ ?x1722 (+ 0 (div ?x3087 12))) 100) 0) true))))
(let (($x885 (or $x3151 (= (mod (+ ?x1722 (+ 0 (div ?x3087 12))) 400) 0))))
(let ((?x845 (ite (= ?x412 2) (ite $x885 29 28) ?x2664)))
(let ((?x1036 (ite (> 1 ?x3023) 1 (ite (> ?x3023 ?x845) ?x845 ?x3023))))
(let ((?x617 (ite (> 1 ?x1036) 1 (ite (> ?x1036 ?x845) ?x845 ?x1036))))
(let ((?x675 (ite (= 2 ?x412) (ite $x885 31 31) (ite (= 1 ?x412) (ite $x885 0 0) 0))))
(let ((?x3010 (ite (= 4 ?x412) (ite $x885 91 90) (ite (= 3 ?x412) (ite $x885 60 59) ?x675))))
(let ((?x2742 (ite (= 6 ?x412) (ite $x885 152 151) (ite (= 5 ?x412) (ite $x885 121 120) ?x3010))))
(let ((?x3189 (ite (= 8 ?x412) (ite $x885 213 212) (ite (= 7 ?x412) (ite $x885 182 181) ?x2742))))
(let ((?x1015 (ite (= 10 ?x412) (ite $x885 274 273) (ite (= 9 ?x412) (ite $x885 244 243) ?x3189))))
(let ((?x1462 (ite (= 12 ?x412) (ite $x885 335 334) (ite (= 11 ?x412) (ite $x885 305 304) ?x1015))))
(let ((?x1149 (+ (* 365 (- (+ ?x1722 (+ 0 (div ?x3087 12))) 1)) (div (- (+ ?x1722 (+ 0 (div ?x3087 12))) 1) 4))))
(let ((?x636 (+ (- ?x1149 (div (- (+ ?x1722 (+ 0 (div ?x3087 12))) 1) 100)) (div (- (+ ?x1722 (+ 0 (div ?x3087 12))) 1) 400))))
(let ((?x1132 (+ (+ (- (+ (+ ?x636 ?x1462) (- ?x617 1)) 730179) 0) 730179)))
(let ((?x1465 (mod ?x1132 146097)))
(let ((?x2704 (div ?x1465 36524)))
(let ((?x1677 (ite (<= 4 ?x2704) 3 ?x2704)))
(let ((?x2786 (- ?x1465 (* ?x1677 36524))))
(let ((?x796 (mod ?x2786 1461)))
(let ((?x3211 (div ?x796 365)))
(let ((?x3075 (ite (<= 4 ?x3211) 3 ?x3211)))
(let ((?x1564 (+ (+ (* (div ?x1132 146097) 400) (* ?x1677 100)) (* (div ?x2786 1461) 4))))
(let ((?x1356 (+ (+ ?x1564 ?x3075) 1)))
(let (($x707 (or (and (= (mod ?x1356 4) 0) (and (distinct (mod ?x1356 100) 0) true)) (= (mod ?x1356 400) 0))))
(let ((?x3418 (- ?x796 (* ?x3075 365))))
(let ((?x753 (ite $x707 31 31)))
(let (($x550 (>= ?x3418 ?x753)))
(let ((?x433 (ite $x550 (+ (- ?x3418 ?x753) 1) (+ (- ?x3418 (ite $x707 0 0)) 1))))
(let ((?x504 (ite $x707 60 59)))
(let (($x571 (>= ?x3418 ?x504)))
(let ((?x1108 (ite $x707 91 90)))
(let (($x621 (>= ?x3418 ?x1108)))
(let ((?x3027 (ite $x621 (+ (- ?x3418 ?x1108) 1) (ite $x571 (+ (- ?x3418 ?x504) 1) ?x433))))
(let ((?x411 (ite $x707 121 120)))
(let (($x862 (>= ?x3418 ?x411)))
(let ((?x3127 (ite $x707 152 151)))
(let (($x3160 (>= ?x3418 ?x3127)))
(let ((?x2460 (ite $x3160 (+ (- ?x3418 ?x3127) 1) (ite $x862 (+ (- ?x3418 ?x411) 1) ?x3027))))
(let ((?x1055 (ite $x707 182 181)))
(let (($x522 (>= ?x3418 ?x1055)))
(let ((?x1089 (ite $x707 213 212)))
(let (($x993 (>= ?x3418 ?x1089)))
(let ((?x978 (ite $x993 (+ (- ?x3418 ?x1089) 1) (ite $x522 (+ (- ?x3418 ?x1055) 1) ?x2460))))
(let ((?x3083 (ite $x707 244 243)))
(let (($x2461 (>= ?x3418 ?x3083)))
(let ((?x981 (ite $x707 274 273)))
(let (($x945 (>= ?x3418 ?x981)))
(let ((?x973 (ite $x945 (+ (- ?x3418 ?x981) 1) (ite $x2461 (+ (- ?x3418 ?x3083) 1) ?x978))))
(let ((?x414 (ite $x707 305 304)))
(let (($x730 (>= ?x3418 ?x414)))
(let ((?x787 (ite $x707 335 334)))
(let (($x461 (>= ?x3418 ?x787)))
(let ((?x902 (ite $x461 (+ (- ?x3418 ?x787) 1) (ite $x730 (+ (- ?x3418 ?x414) 1) ?x973))))
(let (($x533 (= 0 0)))
(let (($x527 (= (mod (ite $x533 (+ ?x1722 (+ 0 (div ?x3087 12))) ?x1356) 400) 0)))
(let (($x936 (and (distinct (mod (ite $x533 (+ ?x1722 (+ 0 (div ?x3087 12))) ?x1356) 100) 0) true)))
(let (($x965 (= (mod (ite $x533 (+ ?x1722 (+ 0 (div ?x3087 12))) ?x1356) 4) 0)))
(let (($x468 (or (and $x965 $x936) $x527)))
(let ((?x2705 (ite $x862 5 (ite $x621 4 (ite $x571 3 (ite $x550 2 1))))))
(let ((?x3025 (ite $x2461 9 (ite $x993 8 (ite $x522 7 (ite $x3160 6 ?x2705))))))
(let ((?x460 (ite $x533 ?x412 (ite $x461 12 (ite $x730 11 (ite $x945 10 ?x3025))))))
(let ((?x421 (ite (= 2 ?x460) (ite $x468 31 31) (ite (= 1 ?x460) (ite $x468 0 0) 0))))
(let ((?x2105 (ite (= 4 ?x460) (ite $x468 91 90) (ite (= 3 ?x460) (ite $x468 60 59) ?x421))))
(let ((?x1502 (ite (= 6 ?x460) (ite $x468 152 151) (ite (= 5 ?x460) (ite $x468 121 120) ?x2105))))
(let ((?x1557 (ite (= 8 ?x460) (ite $x468 213 212) (ite (= 7 ?x460) (ite $x468 182 181) ?x1502))))
(let ((?x1811 (ite (= 10 ?x460) (ite $x468 274 273) (ite (= 9 ?x460) (ite $x468 244 243) ?x1557))))
(let ((?x2848 (ite (= 12 ?x460) (ite $x468 335 334) (ite (= 11 ?x460) (ite $x468 305 304) ?x1811))))
(let ((?x1678 (+ ?x1722 (+ 0 (div ?x3087 12)))))
(let ((?x672 (ite $x533 ?x1678 ?x1356)))
(let ((?x406 (- ?x672 1)))
(let ((?x473 (+ (- (+ (* 365 ?x406) (div ?x406 4)) (div ?x406 100)) (div ?x406 400))))
(= (- (+ (+ ?x473 ?x2848) (- (ite $x533 ?x617 ?x902) 1)) 730179) 6938)))))))))))))))))))))))))))))))))))))))))))))))))))))))))))))))))))))))))))))))))))))))))))))))))))))))))))))))))))))))
(check-sat)
